#************************************************************************************
#*                   Generated by cif2cell 2.0.0 2020-08-09 18:32                   *
#*  T. Bjorkman, Comp. Phys. Commun. 182, 1183-1186 (2011). Please cite generously. *
#*                                                                                  *
#*                             KNa2LiTi2Fe2(SiO3)8   ()                             *
#*             Failed to get author information, No journal information             *
#************************************************************************************

&SYSTEM
  ibrav = 0
  A =   10.47850
  nat = 80
  ntyp = 7
/
CELL_PARAMETERS {alat}
  1.000000000000000   0.000000000000000   0.000000000000000 
  0.252756650616549   0.967529883553528   0.000000000000000 
  0.326916202245714   0.252484147607509   0.870837324718203 
ATOMIC_SPECIES
  Li    6.96750  Li_PSEUDO
  Fe   55.84500  Fe_PSEUDO
  Si   28.08500  Si_PSEUDO
  Na   22.98900  Na_PSEUDO
  Ti   47.86700  Ti_PSEUDO
   O   15.99900   O_PSEUDO
   K   39.09830   K_PSEUDO
ATOMIC_POSITIONS {crystal}
Fe   0.656337000000000   0.020967000000000   0.907218000000000 
Fe   0.020967000000000   0.656337000000000   0.407218000000000 
Fe   0.147901000000000   0.029420000000000   0.892753000000000 
Fe   0.029420000000000   0.147901000000000   0.392753000000000 
Ti   0.330805000000000   0.983207000000000   0.110374000000000 
Ti   0.983207000000000   0.330805000000000   0.610374000000000 
Ti   0.860198000000000   0.962153000000000   0.122307000000000 
Ti   0.962153000000000   0.860198000000000   0.622307000000000 
 K   0.584019000000000   0.418172000000000   0.254871000000000 
 K   0.418172000000000   0.584019000000000   0.754871000000000 
Si   0.448257000000000   0.260249000000000   0.066393000000000 
Si   0.260249000000000   0.448257000000000   0.566393000000000 
Si   0.548772000000000   0.740601000000000   0.947583000000000 
Si   0.740601000000000   0.548772000000000   0.447583000000000 
Si   0.248952000000000   0.705162000000000   0.088234000000000 
Si   0.705162000000000   0.248952000000000   0.588234000000000 
Si   0.754126000000000   0.289508000000000   0.921589000000000 
Si   0.289508000000000   0.754126000000000   0.421589000000000 
Si   0.756909000000000   0.703450000000000   0.116442000000000 
Si   0.703450000000000   0.756909000000000   0.616442000000000 
Si   0.248928000000000   0.294454000000000   0.895193000000000 
Si   0.294454000000000   0.248928000000000   0.395193000000000 
Si   0.958978000000000   0.253854000000000   0.084637000000000 
Si   0.253854000000000   0.958978000000000   0.584637000000000 
Si   0.040566000000000   0.748866000000000   0.922880000000000 
Si   0.748866000000000   0.040566000000000   0.422880000000000 
Na   0.534903000000000   0.938247000000000   0.311954000000000 
Na   0.938247000000000   0.534903000000000   0.811954000000000 
Na   0.463021000000000   0.058922000000000   0.710547000000000 
Na   0.058922000000000   0.463021000000000   0.210547000000000 
 O   0.992747000000000   0.093040000000000   0.077200000000000 
 O   0.093040000000000   0.992747000000000   0.577200000000000 
 O   0.992665000000000   0.906404000000000   0.935308000000000 
 O   0.906404000000000   0.992665000000000   0.435308000000000 
 O   0.222286000000000   0.870801000000000   0.075539000000000 
 O   0.870801000000000   0.222286000000000   0.575539000000000 
 O   0.787182000000000   0.125529000000000   0.938850000000000 
 O   0.125529000000000   0.787182000000000   0.438850000000000 
 O   0.728318000000000   0.055248000000000   0.264775000000000 
 O   0.055248000000000   0.728318000000000   0.764775000000000 
 O   0.279330000000000   0.945215000000000   0.736564000000000 
 O   0.945215000000000   0.279330000000000   0.236564000000000 
 O   0.197448000000000   0.060436000000000   0.229281000000000 
 O   0.060436000000000   0.197448000000000   0.729281000000000 
 O   0.826347000000000   0.928836000000000   0.747057000000000 
 O   0.928836000000000   0.826347000000000   0.247057000000000 
 O   0.722309000000000   0.866404000000000   0.106488000000000 
 O   0.866404000000000   0.722309000000000   0.606488000000000 
 O   0.290408000000000   0.130858000000000   0.914226000000000 
 O   0.130858000000000   0.290408000000000   0.414226000000000 
 O   0.921482000000000   0.653308000000000   0.044278000000000 
 O   0.653308000000000   0.921482000000000   0.544278000000000 
 O   0.082112000000000   0.340095000000000   0.956597000000000 
 O   0.340095000000000   0.082112000000000   0.456597000000000 
 O   0.475489000000000   0.095842000000000   0.084238000000000 
 O   0.095842000000000   0.475489000000000   0.584238000000000 
 O   0.510960000000000   0.901428000000000   0.939526000000000 
 O   0.901428000000000   0.510960000000000   0.439526000000000 
 O   0.670466000000000   0.662459000000000   0.031334000000000 
 O   0.662459000000000   0.670466000000000   0.531334000000000 
 O   0.328898000000000   0.343017000000000   0.981473000000000 
 O   0.343017000000000   0.328898000000000   0.481473000000000 
 O   0.392528000000000   0.292116000000000   0.226671000000000 
 O   0.292116000000000   0.392528000000000   0.726671000000000 
 O   0.607298000000000   0.713144000000000   0.784673000000000 
 O   0.713144000000000   0.607298000000000   0.284673000000000 
 O   0.387104000000000   0.820697000000000   0.257926000000000 
 O   0.820697000000000   0.387104000000000   0.757926000000000 
 O   0.606581000000000   0.185819000000000   0.745699000000000 
 O   0.185819000000000   0.606581000000000   0.245699000000000 
 O   0.417662000000000   0.656768000000000   0.027975000000000 
 O   0.656768000000000   0.417662000000000   0.527975000000000 
 O   0.585207000000000   0.336063000000000   0.980231000000000 
 O   0.336063000000000   0.585207000000000   0.480231000000000 
 O   0.818272000000000   0.329953000000000   0.030291000000000 
 O   0.329953000000000   0.818272000000000   0.530291000000000 
 O   0.184592000000000   0.679997000000000   0.968905000000000 
 O   0.679997000000000   0.184592000000000   0.468905000000000 
Li   0.061454000000000   0.933076000000000   0.265074000000000 
Li   0.933076000000000   0.061454000000000   0.765074000000000 
