#************************************************************************************
#*                   Generated by cif2cell 2.0.0 2020-08-11 22:50                   *
#*  T. Bjorkman, Comp. Phys. Commun. 182, 1183-1186 (2011). Please cite generously. *
#*                                                                                  *
#*                                    None   ()                                     *
#*             Failed to get author information, No journal information             *
#************************************************************************************
#***  High Precision
#***  ecutwfc=90,
#***  ecutrho=900,
#***  16 8 8 0 0 0
  
&CONTROL
  calculation='scf',
  outdir='.',
  prefix='basic',
  pseudo_dir='.',
  verbosity='low',
  tprnfor=.true.,
  tstress=.true.,
/
&SYSTEM
  ibrav = 0
  A =    2.570795
  nat = 4
  ntyp = 2
  ecutwfc=70,
  ecutrho=700,
  input_dft='pbe',
  occupations='smearing',
  smearing='mv',
  degauss=0.005d0,
/
&ELECTRONS
    conv_thr=1d-08,
    mixing_beta=0.7d0,
/
CELL_PARAMETERS {alat}
  1.000000000000000   0.000000000000000   0.000000000000000 
  0.000000000000000   1.632981042829164   0.000000000000000 
  0.000000000000000   0.000000000000000   1.732049813384575 
ATOMIC_SPECIES
  Fe   55.84500  Fe.pbe-spn-kjpaw_psl.0.2.1.UPF
  Al   26.98100  Al.pbe-n-kjpaw_psl.0.1.UPF
ATOMIC_POSITIONS {crystal}
Fe   0.750000000000000   0.750000000000000   0.916666667000000 
Fe   0.250000000000000   0.250000000000000   0.083333333000000 
Al   0.250000000000000   0.750000000000000   0.416666667000000 
Al   0.750000000000000   0.250000000000000   0.583333333000000 
K_POINTS {automatic}
6 4 4 0 0 0