#************************************************************************************
#*                   Generated by cif2cell 2.0.0 2020-08-15 18:12                   *
#*  T. Bjorkman, Comp. Phys. Commun. 182, 1183-1186 (2011). Please cite generously. *
#*                                                                                  *
#*                           None   (stishovite at 1bar)                            *
#*          Sugiyama, M. et al., Mineralogical Journal 13, 455-466 (1987)           *
#************************************************************************************
&CONTROL
  calculation='scf',
  outdir='.',
  prefix='SiO2-stishovite',
  pseudo_dir='.',
  verbosity='low',
  tprnfor=.true.,
  tstress=.true.,
/
&SYSTEM
  ibrav = 0,
  A =    4.095050,
  nat = 6,
  ntyp = 2,
  ecutwfc=100,
  ecutrho=400,
  input_dft='pbe',
  occupations='smearing',
  smearing='mv',
  degauss=0.005d0,
/
&ELECTRONS
  conv_thr=1d-08,
  mixing_beta=0.7d0,
/
CELL_PARAMETERS {alat}
  1.000000000000000   0.000000000000000   0.000000000000000 
  0.000000000000000   1.000000000000000   0.000000000000000 
  0.000000000000000   0.000000000000000   0.638060147857502 
ATOMIC_SPECIES
  Si   28.08500  Si.pbe-n-kjpaw_psl.0.1.UPF
   O   15.99900   O.pbe-kjpaw.UPF
ATOMIC_POSITIONS {crystal}
Si   0.000000000000000   0.000000000000000   0.000000000000000 
Si   0.500000000000000   0.500000000000000   0.500000000000000 
 O   0.306130000000000   0.306130000000000   0.000000000000000 
 O   0.806130000000000   0.193870000000000   0.500000000000000 
 O   0.193870000000000   0.806130000000000   0.500000000000000 
 O   0.693870000000000   0.693870000000000   0.000000000000000 
K_POINTS {automatic}
4 4 9 0 0 0