#************************************************************************************
#*                   Generated by cif2cell 2.0.0 2020-08-14 22:21                   *
#*  T. Bjorkman, Comp. Phys. Commun. 182, 1183-1186 (2011). Please cite generously. *
#*                                                                                  *
#*                                None   (Litharge)                                 *
#*      Boher, P. et al., Journal of Solid State Chemistry 57, 343-350 (1985)       *
#************************************************************************************
&CONTROL
  calculation='scf',
  outdir='.',
  prefix='basic',
  pseudo_dir='.',
  verbosity='low',
  tprnfor=.true.,
  tstress=.true.,
/

&SYSTEM
  ibrav = 0
  A =    3.97440
  nat = 4
  ntyp = 2
  ecutwfc=60,
  ecutrho=240,
  input_dft='pbe',
  occupations='smearing',
  smearing='mv',
  degauss=0.005d0,
/

&ELECTRONS
    conv_thr=1d-08,
    mixing_beta=0.7d0,
/

CELL_PARAMETERS {alat}
  1.000000000000000   0.000000000000000   0.000000000000000 
  0.000000000000000   1.000000000000000   0.000000000000000 
  0.000000000000000   0.000000000000000   1.263586956521739 
ATOMIC_SPECIES
   O   15.99900  O.pbe-n-kjpaw_psl.0.1.UPF
  Pb  207.20000  Pb.pbe-dn-kjpaw_psl.0.2.2.UPF
ATOMIC_POSITIONS {crystal}
Pb   0.000000000000000   0.500000000000000   0.235100000000000 
Pb   0.500000000000000   0.000000000000000   0.764900000000000 
 O   0.000000000000000   0.000000000000000   0.000000000000000 
 O   0.500000000000000   0.500000000000000   0.000000000000000 
K_POINTS {automatic}
5 5 5 0 0 0