&DOS 
  prefix='basic',
  outdir='.',
  Emin=-6,
  Emax=17,
  DeltaE=0.05,
  fildos='silicon.dos'
/

